50
590
8
60
30
64
33
32
2
90
60
0 2
0 9
0 10
0 12
0 15
0 20
0 25
0 26
0 27
0 30
0 33
0 34
0 36
0 37
0 38
0 46
0 48
1 2
1 4
1 5
1 6
1 7
1 8
1 9
1 10
1 12
1 18
1 21
1 28
1 29
1 30
1 33
1 35
1 36
1 38
1 40
1 42
1 44
1 48
2 3
2 4
2 5
2 6
2 7
2 10
2 15
2 16
2 18
2 19
2 23
2 24
2 25
2 26
2 27
2 30
2 35
2 37
2 38
2 42
2 45
2 46
2 47
2 49
3 8
3 10
3 11
3 15
3 19
3 21
3 23
3 25
3 26
3 30
3 31
3 32
3 33
3 34
3 35
3 37
3 39
3 40
3 42
3 43
3 44
3 46
3 47
3 48
3 49
4 8
4 11
4 15
4 16
4 18
4 19
4 20
4 23
4 24
4 26
4 29
4 34
4 36
4 40
4 47
5 6
5 9
5 10
5 11
5 12
5 13
5 14
5 16
5 18
5 21
5 22
5 23
5 24
5 26
5 29
5 32
5 33
5 35
5 36
5 39
5 40
5 43
5 45
6 7
6 8
6 10
6 17
6 18
6 20
6 21
6 22
6 26
6 28
6 29
6 31
6 32
6 33
6 35
6 36
6 39
6 40
6 42
6 44
6 45
6 46
6 47
7 8
7 12
7 13
7 19
7 20
7 21
7 22
7 24
7 26
7 28
7 31
7 33
7 34
7 35
7 36
7 41
7 42
7 44
7 45
7 46
7 49
8 9
8 12
8 13
8 14
8 15
8 20
8 22
8 25
8 26
8 28
8 29
8 30
8 31
8 32
8 33
8 35
8 36
8 38
8 41
8 42
8 43
8 44
8 45
8 47
8 48
9 10
9 11
9 12
9 15
9 17
9 19
9 21
9 25
9 27
9 30
9 33
9 36
9 37
9 39
9 41
9 42
9 43
9 44
9 46
9 47
9 49
10 14
10 20
10 21
10 26
10 27
10 29
10 30
10 31
10 33
10 35
10 36
10 37
10 38
10 40
10 41
10 43
10 44
10 45
10 46
10 47
10 48
11 13
11 14
11 15
11 16
11 17
11 19
11 20
11 25
11 26
11 27
11 31
11 40
11 41
11 43
11 46
11 48
12 13
12 14
12 15
12 16
12 19
12 22
12 29
12 30
12 32
12 33
12 34
12 35
12 40
12 41
12 43
12 44
13 21
13 22
13 23
13 26
13 27
13 29
13 30
13 32
13 37
13 38
13 40
13 41
13 43
13 44
13 45
13 46
13 49
14 16
14 17
14 18
14 19
14 20
14 23
14 25
14 26
14 30
14 31
14 33
14 35
14 36
14 38
14 40
14 41
14 46
14 47
14 48
14 49
15 16
15 17
15 21
15 22
15 23
15 29
15 30
15 34
15 35
15 36
15 39
15 40
15 41
15 42
15 44
15 45
15 46
15 47
15 48
15 49
16 18
16 20
16 21
16 23
16 24
16 25
16 29
16 30
16 31
16 33
16 38
16 46
16 48
16 49
17 18
17 20
17 25
17 27
17 29
17 30
17 32
17 34
17 36
17 39
17 45
17 48
18 19
18 20
18 21
18 22
18 23
18 24
18 26
18 27
18 28
18 29
18 30
18 35
18 37
18 39
18 44
19 21
19 23
19 25
19 27
19 28
19 29
19 34
19 35
19 39
19 41
19 42
19 46
19 47
19 48
19 49
20 22
20 23
20 29
20 30
20 32
20 34
20 35
20 37
20 40
20 42
20 44
20 45
21 29
21 30
21 31
21 34
21 37
21 38
21 39
21 40
21 41
21 43
21 44
21 47
21 48
22 23
22 25
22 28
22 30
22 31
22 34
22 37
22 41
22 43
22 45
23 25
23 31
23 32
23 33
23 34
23 35
23 36
23 37
23 38
23 39
23 40
23 41
23 42
23 43
23 45
23 47
24 26
24 29
24 30
24 34
24 35
24 37
24 38
24 39
24 40
24 44
24 45
24 46
24 48
24 49
25 29
25 32
25 33
25 35
25 37
25 38
25 39
25 42
25 43
25 45
26 28
26 31
26 33
26 34
26 35
26 36
26 39
26 40
26 45
26 46
26 49
27 28
27 29
27 32
27 34
27 36
27 37
27 38
27 41
27 42
27 43
27 46
27 47
28 29
28 30
28 32
28 33
28 34
28 36
28 40
28 41
28 45
28 46
29 31
29 32
29 34
29 35
29 36
29 40
29 43
29 45
29 46
29 47
29 48
30 35
30 38
30 39
30 41
30 45
30 46
30 49
31 32
31 35
31 38
31 39
31 40
31 43
31 45
31 47
32 33
32 36
32 37
32 38
32 39
32 42
32 43
32 45
32 48
33 34
33 37
33 38
33 39
33 41
33 43
33 46
33 47
34 35
34 37
34 39
34 45
34 46
34 48
35 37
35 40
35 41
35 43
35 47
35 48
36 37
36 38
36 40
36 43
36 44
36 48
37 38
37 39
37 43
37 44
38 40
38 41
38 42
38 43
38 45
38 46
38 47
38 49
39 40
39 42
39 43
39 47
40 44
40 45
40 47
40 49
41 44
41 47
41 49
42 43
42 44
42 46
42 48
42 49
43 46
43 47
43 49
44 45
44 46
44 47
45 46
45 48
45 49
47 49
48 49
24 1 36 23 14 6 10
33 41 40 2 0 32 19
22 42 49 18 44 38 29
7 25 39 13 12 31 43
17 48 11 46 34 37 21
28 9 27 15 45 20 8
5 4 3 35 47 30 26
16
